
Gurobi 11.0.3 (linux64) logging started Thu Nov 21 13:29:27 2024

Set parameter LogFile to value "/home/yihong/Coding/OR_SUC/SUC_results_bigM100000_thread4/case24_ieee_rts_theta0.1_epsilon0.05_gurobi_seed240000_num_gen100_N_WDR100_load_scaling_factor1_exact_T8quadra_cost.txt"
Set parameter TimeLimit to value 3600
Gurobi Optimizer version 11.0.3 build v11.0.3rc0 (linux64 - "Ubuntu 20.04.6 LTS")

CPU model: AMD EPYC 7532 32-Core Processor, instruction set [SSE2|AVX|AVX2]
Thread count: 64 physical cores, 128 logical processors, using up to 4 threads

Optimize a model with 18955 rows, 10121 columns and 440954 nonzeros
Model fingerprint: 0x2ccf2912
Model has 800 quadratic constraints
Variable types: 9221 continuous, 900 integer (900 binary)
Coefficient statistics:
  Matrix range     [2e-04, 1e+05]
  QMatrix range    [2e-03, 8e-03]
  QLMatrix range   [4e-01, 6e+01]
  Objective range  [1e+00, 1e+00]
  Bounds range     [1e+00, 1e+00]
  RHS range        [1e+00, 1e+05]
Presolve removed 15476 rows and 4352 columns
Presolve time: 0.13s
Presolved: 3479 rows, 5769 columns, 19998 nonzeros
Presolved model has 800 quadratic constraint(s)
Variable types: 4895 continuous, 874 integer (874 binary)

Root relaxation: objective 9.225889e+03, 2887 iterations, 0.05 seconds (0.06 work units)

    Nodes    |    Current Node    |     Objective Bounds      |     Work
 Expl Unexpl |  Obj  Depth IntInf | Incumbent    BestBd   Gap | It/Node Time

     0     0 9225.88874    0   23          - 9225.88874      -     -    0s
     0     0 151371.935    0  224          - 151371.935      -     -    0s
     0     0 151653.175    0  225          - 151653.175      -     -    0s
     0     0 265227.672    0  104          - 265227.672      -     -    0s
     0     0 265242.659    0  105          - 265242.659      -     -    0s
     0     0 265367.254    0   67          - 265367.254      -     -    0s
     0     0 265379.600    0   72          - 265379.600      -     -    0s
     0     0 265382.583    0   72          - 265382.583      -     -    0s
     0     2 265382.584    0   72          - 265382.584      -     -    1s
H  173   200                    265934.34374 265471.712  0.17%  17.5    1s
*  173   200              56    265934.34374 265471.712  0.17%  17.5    1s
H  257   252                    265537.44602 265471.712  0.02%  15.6    1s
*  257   252              18    265537.44602 265471.712  0.02%  15.7    1s

Cutting planes:
  Gomory: 46
  Implied bound: 222
  MIR: 97
  Flow cover: 162
  RLT: 1

Explored 289 nodes (11383 simplex iterations) in 1.84 seconds (2.11 work units)
Thread count was 4 (of 128 available processors)

Solution count 3: 265537 265537 265934 

Optimal solution found (tolerance 1.00e-03)
Warning: max constraint violation (1.5376e-07) exceeds tolerance
Best objective 2.655374460165e+05, best bound 2.654717116163e+05, gap 0.0248%
